9
0 90 77 65 93 53 42 24 15 
13 0 85 86 31 97 2 62 84 
21 92 0 80 89 45 10 37 3 
46 53 19 0 65 15 93 17 25 
6 64 74 12 0 49 75 93 91 
60 62 70 54 12 0 71 95 97 
86 42 57 93 89 96 0 27 62 
4 66 27 51 11 88 80 0 53 
99 88 73 31 47 35 64 13 0 
